LAMMPS (10 Dec 2025)
OMP_NUM_THREADS environment is not set. Defaulting to 1 thread.
  using 1 OpenMP thread(s) per MPI task
# SIM-02 checkpoint 08: fixed-volume PPPM equilibrium bridge.
# Run from the repository root. This file advances 1,520,000 steps.

units           real
dimension       3
boundary        p p p
atom_style      full

read_data       simulations/SIM-02/lammps/data.spce-4500.ness-ewald
Reading data file ...
  orthogonal box = (-18.176715 -18.176715 -54.530289) to (18.176715 18.176715 54.530289)
  1 by 1 by 1 MPI processor grid
  reading atoms ...
  13500 atoms
  reading velocities ...
  13500 velocities
  scanning bonds ...
  2 = max bonds/atom
  scanning angles ...
  1 = max angles/atom
  orthogonal box = (-18.176715 -18.176715 -54.530289) to (18.176715 18.176715 54.530289)
  1 by 1 by 1 MPI processor grid
  reading bonds ...
  9000 bonds
  reading angles ...
  4500 angles
Finding 1-2 1-3 1-4 neighbors ...
  special bond factors lj:    0        0        0       
  special bond factors coul:  0        0        0       
     2 = max # of 1-2 neighbors
     1 = max # of 1-3 neighbors
     1 = max # of 1-4 neighbors
     2 = max # of special neighbors
  special bonds CPU = 0.004 seconds
  read_data CPU = 2.450 seconds

group           oxygen type 2
4500 atoms in group oxygen
group           hydrogen type 1
9000 atoms in group hydrogen

pair_style      lj/cut/coul/long 11.0 18.176715436271188
pair_coeff      1 1 0.0 0.0
pair_coeff      1 2 0.0 0.0
pair_coeff      2 2 0.15535 3.166
pair_modify     tail yes
kspace_style    pppm 1.0e-5

bond_style      harmonic
bond_coeff      1 1000.0 1.0
angle_style     harmonic
angle_coeff     1 100.0 109.47

neighbor        4.0 bin
neigh_modify    one 7500
timestep        1.0
reset_timestep  0

variable        out string /tmp/sim02-gate2-dry
variable        seed equal 20260930

compute         bridge_temp all temp
compute         bridge_pressure all pressure bridge_temp
variable        vcomx equal vcm(all,x)
variable        vcomy equal vcm(all,y)
variable        vcomz equal vcm(all,z)

thermo_style    custom step time atoms temp press pe ke etotal vol lx ly lz v_vcomx v_vcomy v_vcomz
thermo_modify   temp bridge_temp press bridge_pressure flush yes
thermo          1000
restart         50000 ${out}/restart.1 ${out}/restart.2
restart         50000 /tmp/sim02-gate2-dry/restart.1 ${out}/restart.2
restart         50000 /tmp/sim02-gate2-dry/restart.1 /tmp/sim02-gate2-dry/restart.2

dump            bridge_frames all custom/gz 10000 ${out}/bridge-*.lammpstrj.gz id mol type x y z vx vy vz
dump            bridge_frames all custom/gz 10000 /tmp/sim02-gate2-dry/bridge-*.lammpstrj.gz id mol type x y z vx vy vz
dump_modify     bridge_frames sort id

print           "SIM02_GATE2 seed=${seed} timestep_fs=1 warmup_ps=20 nvt_ps=500 nve_ps=1000"
SIM02_GATE2 seed=20260930 timestep_fs=1 warmup_ps=20 nvt_ps=500 nve_ps=1000
print           "SIM02_GATE2 fixed_box=yes ehex=no"
SIM02_GATE2 fixed_box=yes ehex=no

# The imported file is a NEMD state. Do not retain its velocity field.
velocity        all create 400.0 ${seed} mom yes rot yes dist gaussian
velocity        all create 400.0 20260930 mom yes rot yes dist gaussian

# Stage A: explicit operational translation of the paper's 20 ps velocity
# rescaling. The paper does not report its cadence; 100 fs is frozen here.
fix             integrate all nve
fix             constraints all rattle 1.0e-10 400 0 b 1 a 1
Finding RATTLE clusters ...
       0 = # of size 2 clusters
       0 = # of size 3 clusters
       0 = # of size 4 clusters
    4500 = # of frozen angles
  find clusters CPU = 0.005 seconds
fix             initial_rescale all temp/rescale 100 400.0 400.0 0.0 1.0
run             0
PPPM initialization ...
  using 12-bit tables for long-range coulomb
  G vector (1/distance) = 0.16490289
  grid = 18 18 40
  stencil order = 5
  estimated absolute RMS force accuracy = 0.0030337497
  estimated relative force accuracy = 9.136047e-06
  using double precision FFTW3
  3d grid and FFT values/proc = 29375 12960
Generated 0 of 1 mixed pair_coeff terms from geometric mixing rule
Neighbor list info ...
  update: every = 1 steps, delay = 0 steps, check = yes
  max neighbors/atom: 7500, page size: 100000
  master list distance cutoff = 22.176715
  ghost atom cutoff = 22.176715
  binsize = 11.088358, bins = 4 4 10
  1 neighbor lists, perpetual/occasional/extra = 1 0 0
  (1) pair lj/cut/coul/long, perpetual
      attributes: half, newton on
      pair build: half/bin/newton
      stencil: half/bin/3d
      bin: standard
Per MPI rank memory allocation (min/avg/max) = 170.2 | 170.2 | 170.2 Mbytes
   Step          Time         Atoms         Temp          Press          PotEng         KinEng         TotEng         Volume           Lx             Ly             Lz          v_vcomx        v_vcomy        v_vcomz    
         0   0                  13500   412.47763      746.18563     -44166.098      11064.428     -33101.671      144131.4       36.353431      36.353431      109.06058     -1.0019136e-17 -4.0463679e-19 -4.1045919e-18
Loop time of 1.7e-06 on 1 procs for 0 steps with 13500 atoms

176.5% CPU use with 1 MPI tasks x 1 OpenMP threads

MPI task timing breakdown:
Section |  min time  |  avg time  |  max time  |%varavg| %total
---------------------------------------------------------------
Pair    | 0          | 0          | 0          |   0.0 |  0.00
Bond    | 0          | 0          | 0          |   0.0 |  0.00
Kspace  | 0          | 0          | 0          |   0.0 |  0.00
Neigh   | 0          | 0          | 0          |   0.0 |  0.00
Comm    | 0          | 0          | 0          |   0.0 |  0.00
Output  | 0          | 0          | 0          |   0.0 |  0.00
Modify  | 0          | 0          | 0          |   0.0 |  0.00
Other   |            | 1.7e-06    |            |       |100.00

Nlocal:          13500 ave       13500 max       13500 min
Histogram: 1 0 0 0 0 0 0 0 0 0
Nghost:          78294 ave       78294 max       78294 min
Histogram: 1 0 0 0 0 0 0 0 0 0
Neighs:    2.90288e+07 ave 2.90288e+07 max 2.90288e+07 min
Histogram: 1 0 0 0 0 0 0 0 0 0

Total # of neighbors = 29028779
Ave neighs/atom = 2150.2799
Ave special neighs/atom = 2
Neighbor list builds = 0
Dangerous builds = 0
unfix           initial_rescale
write_restart   ${out}/stage-a-20ps.restart
write_restart   /tmp/sim02-gate2-dry/stage-a-20ps.restart
System init for write_restart ...
PPPM initialization ...
  using 12-bit tables for long-range coulomb
  G vector (1/distance) = 0.16490289
  grid = 18 18 40
  stencil order = 5
  estimated absolute RMS force accuracy = 0.0030337497
  estimated relative force accuracy = 9.136047e-06
  using double precision FFTW3
  3d grid and FFT values/proc = 29375 12960
Generated 0 of 1 mixed pair_coeff terms from geometric mixing rule

# Stage B: fixed-volume Nosé-Hoover relaxation at the paper's 1 ps damping.
unfix           constraints
unfix           integrate
fix             integrate all nvt temp 400.0 400.0 1000.0
fix             constraints all rattle 1.0e-10 400 0 b 1 a 1
Finding RATTLE clusters ...
       0 = # of size 2 clusters
       0 = # of size 3 clusters
       0 = # of size 4 clusters
    4500 = # of frozen angles
  find clusters CPU = 0.003 seconds
run             0
PPPM initialization ...
  using 12-bit tables for long-range coulomb
  G vector (1/distance) = 0.16490289
  grid = 18 18 40
  stencil order = 5
  estimated absolute RMS force accuracy = 0.0030337497
  estimated relative force accuracy = 9.136047e-06
  using double precision FFTW3
  3d grid and FFT values/proc = 29375 12960
Generated 0 of 1 mixed pair_coeff terms from geometric mixing rule
Per MPI rank memory allocation (min/avg/max) = 174.7 | 174.7 | 174.7 Mbytes
   Step          Time         Atoms         Temp          Press          PotEng         KinEng         TotEng         Volume           Lx             Ly             Lz          v_vcomx        v_vcomy        v_vcomz    
         0   0                  13500   412.47763      399.25059     -44166.098      11064.428     -33101.671      144131.4       36.353431      36.353431      109.06058     -9.9886976e-18 -3.2204038e-19 -4.0502837e-18
Loop time of 1.34e-05 on 1 procs for 0 steps with 13500 atoms

216.4% CPU use with 1 MPI tasks x 1 OpenMP threads

MPI task timing breakdown:
Section |  min time  |  avg time  |  max time  |%varavg| %total
---------------------------------------------------------------
Pair    | 0          | 0          | 0          |   0.0 |  0.00
Bond    | 0          | 0          | 0          |   0.0 |  0.00
Kspace  | 0          | 0          | 0          |   0.0 |  0.00
Neigh   | 0          | 0          | 0          |   0.0 |  0.00
Comm    | 0          | 0          | 0          |   0.0 |  0.00
Output  | 0          | 0          | 0          |   0.0 |  0.00
Modify  | 0          | 0          | 0          |   0.0 |  0.00
Other   |            | 1.34e-05   |            |       |100.00

Nlocal:          13500 ave       13500 max       13500 min
Histogram: 1 0 0 0 0 0 0 0 0 0
Nghost:          78294 ave       78294 max       78294 min
Histogram: 1 0 0 0 0 0 0 0 0 0
Neighs:    2.90288e+07 ave 2.90288e+07 max 2.90288e+07 min
Histogram: 1 0 0 0 0 0 0 0 0 0

Total # of neighbors = 29028779
Ave neighs/atom = 2150.2799
Ave special neighs/atom = 2
Neighbor list builds = 0
Dangerous builds = 0
unfix           constraints
unfix           integrate
write_restart   ${out}/stage-b-500ps-nvt.restart
write_restart   /tmp/sim02-gate2-dry/stage-b-500ps-nvt.restart
System init for write_restart ...
PPPM initialization ...
  using 12-bit tables for long-range coulomb
  G vector (1/distance) = 0.16490289
  grid = 18 18 40
  stencil order = 5
  estimated absolute RMS force accuracy = 0.0030337497
  estimated relative force accuracy = 9.136047e-06
  using double precision FFTW3
  3d grid and FFT values/proc = 29375 12960
Generated 0 of 1 mixed pair_coeff terms from geometric mixing rule

# Stages C and D: install the NVE integrator and RATTLE first so the exact
# kinetic-energy adjustment uses the constrained system degrees of freedom.
fix             integrate all nve
fix             constraints all rattle 1.0e-10 400 0 b 1 a 1
Finding RATTLE clusters ...
       0 = # of size 2 clusters
       0 = # of size 3 clusters
       0 = # of size 4 clusters
    4500 = # of frozen angles
  find clusters CPU = 0.094 seconds
velocity        all scale 400.0
compute         oo_rdf all rdf 200 2 2
fix             rdf_blocks all ave/time 1000 100 100000 c_oo_rdf[*] file ${out}/oo-rdf-100ps-blocks.dat mode vector ave one
fix             rdf_blocks all ave/time 1000 100 100000 c_oo_rdf[*] file /tmp/sim02-gate2-dry/oo-rdf-100ps-blocks.dat mode vector ave one
run             0
PPPM initialization ...
  using 12-bit tables for long-range coulomb
  G vector (1/distance) = 0.16490289
  grid = 18 18 40
  stencil order = 5
  estimated absolute RMS force accuracy = 0.0030337497
  estimated relative force accuracy = 9.136047e-06
  using double precision FFTW3
  3d grid and FFT values/proc = 29375 12960
Generated 0 of 1 mixed pair_coeff terms from geometric mixing rule
Neighbor list info ...
  update: every = 1 steps, delay = 0 steps, check = yes
  max neighbors/atom: 7500, page size: 100000
  master list distance cutoff = 22.176715
  ghost atom cutoff = 22.176715
  binsize = 11.088358, bins = 4 4 10
  2 neighbor lists, perpetual/occasional/extra = 1 1 0
  (1) pair lj/cut/coul/long, perpetual
      attributes: half, newton on
      pair build: half/bin/newton
      stencil: half/bin/3d
      bin: standard
  (2) compute rdf, occasional, copy from (1)
      attributes: half, newton on
      pair build: copy
      stencil: none
      bin: none
Per MPI rank memory allocation (min/avg/max) = 176 | 176 | 176 Mbytes
   Step          Time         Atoms         Temp          Press          PotEng         KinEng         TotEng         Volume           Lx             Ly             Lz          v_vcomx        v_vcomy        v_vcomz    
         0   0                  13500   400            689.27859     -44166.098      10729.724     -33436.374      144131.4       36.353431      36.353431      109.06058     -9.6678876e-18 -3.6898766e-19 -4.6496426e-18
Loop time of 2.8e-06 on 1 procs for 0 steps with 13500 atoms

214.3% CPU use with 1 MPI tasks x 1 OpenMP threads

MPI task timing breakdown:
Section |  min time  |  avg time  |  max time  |%varavg| %total
---------------------------------------------------------------
Pair    | 0          | 0          | 0          |   0.0 |  0.00
Bond    | 0          | 0          | 0          |   0.0 |  0.00
Kspace  | 0          | 0          | 0          |   0.0 |  0.00
Neigh   | 0          | 0          | 0          |   0.0 |  0.00
Comm    | 0          | 0          | 0          |   0.0 |  0.00
Output  | 0          | 0          | 0          |   0.0 |  0.00
Modify  | 0          | 0          | 0          |   0.0 |  0.00
Other   |            | 2.8e-06    |            |       |100.00

Nlocal:          13500 ave       13500 max       13500 min
Histogram: 1 0 0 0 0 0 0 0 0 0
Nghost:          78294 ave       78294 max       78294 min
Histogram: 1 0 0 0 0 0 0 0 0 0
Neighs:    2.90288e+07 ave 2.90288e+07 max 2.90288e+07 min
Histogram: 1 0 0 0 0 0 0 0 0 0

Total # of neighbors = 29028779
Ave neighs/atom = 2150.2799
Ave special neighs/atom = 2
Neighbor list builds = 0
Dangerous builds = 0

write_data      ${out}/equilibrium-bridge-final.data pair ij
write_data      /tmp/sim02-gate2-dry/equilibrium-bridge-final.data pair ij
System init for write_data ...
PPPM initialization ...
  using 12-bit tables for long-range coulomb
  G vector (1/distance) = 0.16490289
  grid = 18 18 40
  stencil order = 5
  estimated absolute RMS force accuracy = 0.0030337497
  estimated relative force accuracy = 9.136047e-06
  using double precision FFTW3
  3d grid and FFT values/proc = 29375 12960
Generated 0 of 1 mixed pair_coeff terms from geometric mixing rule
write_restart   ${out}/equilibrium-bridge-final.restart
write_restart   /tmp/sim02-gate2-dry/equilibrium-bridge-final.restart
System init for write_restart ...
PPPM initialization ...
  using 12-bit tables for long-range coulomb
  G vector (1/distance) = 0.16490289
  grid = 18 18 40
  stencil order = 5
  estimated absolute RMS force accuracy = 0.0030337497
  estimated relative force accuracy = 9.136047e-06
  using double precision FFTW3
  3d grid and FFT values/proc = 29375 12960
Generated 0 of 1 mixed pair_coeff terms from geometric mixing rule
print           "SIM02_GATE2 trajectory_complete=yes final_step=$(step)"
SIM02_GATE2 trajectory_complete=yes final_step=0

Total wall time: 0:00:18
